W=5;
H=5;

MAX_TIME=15;
MAX_TRACKS=8;

TARGET=(3,5);

TRAINS=[(2,1,RIGHT),(4,1,RIGHT)];

INIT_POS=[
(2,1,STRAIGHT_RL),
(2,3,STRAIGHT_RL),
(3,5,STRAIGHT_RL),
(4,1,STRAIGHT_RL),
(4,3,STRAIGHT_RL),
(3,3,ROCK),
];
TUNNEL_PAIRS=[];

GATES=[];
ACTIVATIONS=[];

DSWITCHES=[];

STATIONS=[
  (4,3,2),
];
